/*********************************************
 * OPL 12.6.0.0 Data
 * Author: Adrian Rodriguez Bazaga, Pau Rodriguez Esmerats
 * Creation Date: 06/12/2017 at 23:03:03
 *********************************************/

nNurses=227;
maxConsec=2;
maxPresence=7;
maxHours=5;
minHours=1;
hours=24;
demand= [39 27 50 55 27 50 55 30 28 19 4 4 5 5 6 2 5 2 2 1 29 70 42 51  ];
